#------------------------------------------------------------------------------
#$Date: 2024-01-13 03:40:10 +0200 (Sat, 13 Jan 2024) $
#$Revision: 289070 $
#$URL: file:///home/coder/svn-repositories/cod/cif/1/57/07/1570775.cif $
#------------------------------------------------------------------------------
#
# This file is available in the Crystallography Open Database (COD),
# http://www.crystallography.net/
#
# All data on this site have been placed in the public domain by the
# contributors.
#
data_1570775
loop_
_publ_author_name
'Nishiyasu, W.'
'Kyono, A.'
_publ_section_title
;
 Crystal structures of anhydrous borax alpha-Na2B4O7 and gamma-Na2B4O7 and
 ab initio quantum chemical calculations of structural stability on their
 fundamental building blocks
;
_journal_name_full
'Journal of Mineralogical and Petrological Sciences'
_journal_page_first              1
_journal_page_last               10
_journal_paper_doi               10.2465/jmps.230112
_journal_volume                  118:010
_journal_year                    2023
_chemical_formula_sum            'B4 Na2 O7'
_chemical_name_common            alpha-Na2B4O7
_chemical_name_mineral           alpha-Na2B4O7
_space_group_IT_number           2
_space_group_name_Hall           '-P 1'
_space_group_name_H-M_alt        'P -1'
_cell_angle_alpha                93.2540(10)
_cell_angle_beta                 94.8660(10)
_cell_angle_gamma                90.8380(10)
_cell_formula_units_Z            4
_cell_length_a                   6.5489(7)
_cell_length_b                   8.6261(9)
_cell_length_c                   10.4909(11)
_cell_volume                     589.45(11)
_diffrn_ambient_pressure         100
_diffrn_ambient_temperature      298
_cod_data_source_file            alpha-Na2B4O7.cif
_cod_data_source_block           Na2B4O7-alpha
_cod_original_formula_sum        'Na2 B4 O7'
_cod_database_code               1570775
loop_
_space_group_symop_id
_space_group_symop_operation_xyz
1 x,y,z
2 -x,-y,-z
loop_
_atom_site_label
_atom_site_occupancy
_atom_site_fract_x
_atom_site_fract_y
_atom_site_fract_z
_atom_site_adp_type
_atom_site_U_iso_or_equiv
_atom_site_type_symbol
Na1 1.0 0.11018(11) 0.13302(11) 0.61246(7) Uani 0.0282(2) Na
Na2 1.0 0.17528(11) 0.33941(10) 0.01768(7) Uani 0.02341(19) Na
Na3 1.0 0.47715(13) 0.46381(11) 0.22753(8) Uani 0.0295(2) Na
Na4 1.0 0.43925(11) 0.92191(9) 0.85632(7) Uani 0.01897(18) Na
B1 1.0 0.0709(3) 0.1773(2) 0.27124(16) Uani 0.0092(3) B
B2 1.0 0.2493(2) 0.7601(2) 0.63151(17) Uani 0.0097(3) B
B3 1.0 0.1183(3) 0.6845(2) 0.20061(17) Uani 0.0101(3) B
B4 1.0 0.3285(3) 0.7222(2) 0.02595(16) Uani 0.0107(3) B
B5 1.0 0.1555(3) 0.9440(2) 0.13338(17) Uani 0.0105(3) B
B6 1.0 0.0511(3) 0.5534(2) 0.72027(17) Uani 0.0104(3) B
B7 1.0 0.3921(3) 0.1808(2) 0.42215(17) Uani 0.0106(3) B
B8 1.0 0.3445(3) 0.7556(2) 0.40913(17) Uani 0.0120(4) B
O1 1.0 0.14870(17) 0.09933(14) 0.15500(11) Uani 0.0123(2) O
O2 1.0 0.19509(17) 0.13644(15) 0.38986(11) Uani 0.0133(3) O
O3 1.0 0.09945(17) 0.34559(13) 0.25028(11) Uani 0.0122(2) O
O4 1.0 0.13935(16) 0.86524(13) 0.71209(10) Uani 0.0099(2) O
O5 1.0 0.19840(17) 0.77741(15) 0.49196(11) Uani 0.0130(3) O
O6 1.0 0.21600(17) 0.59745(14) 0.65917(11) Uani 0.0135(3) O
O7 1.0 0.47193(17) 0.79472(15) 0.66492(11) Uani 0.0130(3) O
O8 1.0 0.30874(17) 0.69334(15) 0.28763(11) Uani 0.0151(3) O
O9 1.0 0.03467(18) 0.84161(14) 0.18840(11) Uani 0.0134(3) O
O10 1.0 0.18555(17) 0.62438(14) 0.07569(11) Uani 0.0113(2) O
O11 1.0 0.04839(17) 0.40395(14) 0.75753(12) Uani 0.0139(3) O
O12 1.0 0.45102(18) 0.20337(17) 0.55268(11) Uani 0.0188(3) O
O13 1.0 0.30355(18) 0.88729(14) 0.05572(11) Uani 0.0135(3) O
O14 1.0 0.47471(19) 0.68110(15) 0.95515(12) Uani 0.0166(3) O
loop_
_atom_site_aniso_label
_atom_site_aniso_U_11
_atom_site_aniso_U_22
_atom_site_aniso_U_33
_atom_site_aniso_U_12
_atom_site_aniso_U_13
_atom_site_aniso_U_23
Na1 0.0180(4) 0.0515(6) 0.0171(4) 0.0080(4) 0.0075(3) 0.0101(3)
Na2 0.0166(3) 0.0286(5) 0.0243(4) 0.0018(3) -0.0007(3) -0.0019(3)
Na3 0.0300(4) 0.0325(5) 0.0245(4) 0.0158(4) -0.0034(3) -0.0079(3)
Na4 0.0236(4) 0.0212(4) 0.0119(3) -0.0079(3) 0.0025(3) -0.0002(3)
B1 0.0083(7) 0.0100(8) 0.0095(8) -0.0012(6) 0.0030(6) 0.0005(6)
B2 0.0070(7) 0.0129(9) 0.0094(8) -0.0016(6) 0.0019(6) 0.0017(6)
B3 0.0109(8) 0.0099(8) 0.0098(8) -0.0004(6) 0.0022(6) 0.0005(6)
B4 0.0120(8) 0.0130(9) 0.0073(8) -0.0003(7) 0.0006(6) 0.0015(6)
B5 0.0107(7) 0.0110(9) 0.0099(8) -0.0005(6) 0.0019(6) 0.0013(6)
B6 0.0106(8) 0.0109(8) 0.0097(8) -0.0010(6) 0.0014(6) 0.0006(6)
B7 0.0093(7) 0.0127(9) 0.0102(8) 0.0001(6) 0.0022(6) 0.0021(6)
B8 0.0115(8) 0.0142(9) 0.0103(8) -0.0002(7) 0.0006(6) 0.0022(6)
O1 0.0158(5) 0.0107(6) 0.0113(5) -0.0014(4) 0.0065(4) 0.0004(4)
O2 0.0079(5) 0.0212(7) 0.0112(6) -0.0018(5) 0.0012(4) 0.0051(4)
O3 0.0110(5) 0.0095(6) 0.0171(6) -0.0012(4) 0.0062(4) 0.0016(4)
O4 0.0074(5) 0.0115(6) 0.0109(5) -0.0024(4) 0.0024(4) 0.0001(4)
O5 0.0093(5) 0.0216(7) 0.0083(5) -0.0008(5) 0.0012(4) 0.0013(4)
O6 0.0122(5) 0.0123(6) 0.0175(6) 0.0009(4) 0.0072(4) 0.0030(4)
O7 0.0070(5) 0.0222(7) 0.0101(5) -0.0025(5) 0.0015(4) 0.0033(4)
O8 0.0118(5) 0.0232(7) 0.0100(6) 0.0009(5) 0.0012(4) -0.0022(5)
O9 0.0147(5) 0.0100(6) 0.0170(6) 0.0004(4) 0.0085(5) 0.0025(4)
O10 0.0136(5) 0.0116(6) 0.0089(5) -0.0019(4) 0.0032(4) -0.0008(4)
O11 0.0122(5) 0.0110(6) 0.0197(6) -0.0007(4) 0.0068(4) 0.0039(5)
O12 0.0101(5) 0.0366(8) 0.0095(6) -0.0049(5) 0.0022(4) -0.0011(5)
O13 0.0152(5) 0.0108(6) 0.0155(6) -0.0014(4) 0.0080(5) 0.0000(4)
O14 0.0173(6) 0.0171(6) 0.0168(6) 0.0023(5) 0.0080(5) 0.0015(5)
